\ This file was automatically generated by Zimpl
\ var x1 >= 0;
\ var x2 >= 0;
\ minimize Z:     1*x1 + 1*x2;
\ subto r1:     1*x1 - 1*x2 <= 2;
\ subto r2:     1*x1 - 1*x2 >= -2;
\Problem name: pp
Minimize
 Z:  + x1 + x2
Subject to
 r1_1:
  - x2 + x1 <= 2
 r2_1:
  - x2 + x1 >= -2
Bounds
 0 <= x1 <= +inf
 0 <= x2 <= +inf
End
